@relation 'MLC'

@attribute F1_MINIMUM_GYR_X numeric
@attribute F2_MAXIMUM_GYR_X numeric
@attribute F3_VARIANCE_GYR_X numeric
@attribute F4_PEAK_TO_PEAK_GYR_X numeric
@attribute F5_ABS_MEAN_GYR_V numeric
@attribute F6_ENERGY_GYR_X numeric
@attribute F7_MAXIMUM_ACC_Y numeric
@attribute F8_MAXIMUM_ACC_X numeric
@attribute F9_MAXIMUM_ACC_Z numeric
@attribute F10_MEAN_ACC_Z numeric
@attribute F11_MEAN_ACC_Y numeric
@attribute F12_ABS_MINIMUM_ACC_V numeric
@attribute F13_ENERGY_ACC_Y numeric
@attribute F14_MINIMUM_ACC_Y numeric
@attribute F15_ENERGY_ACC_X numeric
@attribute class {Static, Screwdriving-Correct, Screwdriving-Incorrect, Snipping-Correct, Snipping-Incorrect}

@data
-0.0170898, 0.0164795, 4.42266e-05, 0.0335693, 0.00617599, 0.00358772, -0.479248, -0.362305, 0.793457, 0.785645, -0.486084, 0.994629, 19.0469, -0.490234, 10.7813, Static
-0.012207, 0.00610352, 2.03252e-05, 0.0183105, 0.00511932, 0.00186348, -0.480225, -0.362305, 0.79248, 0.785645, -0.486816, 0.994629, 19.1094, -0.491211, 10.7578, Static
-0.0164795, 0.00793457, 3.1352e-05, 0.0244141, 0.00630188, 0.00266647, -0.478271, -0.360352, 0.793457, 0.786621, -0.484619, 0.994629, 19.0781, -0.493408, 10.75, Static
-0.0134277, 0.00793457, 1.78218e-05, 0.0213623, 0.00567245, 0.00173473, -0.479248, -0.359131, 0.793457, 0.786621, -0.485107, 0.994629, 19.0313, -0.489258, 10.7422, Static
-0.010376, 0.00976563, 1.32918e-05, 0.0201416, 0.00494766, 0.0012064, -0.479248, -0.360352, 0.79541, 0.786621, -0.485352, 0.994141, 19.0469, -0.489258, 10.7344, Static
-0.00793457, 0.00549316, 7.39098e-06, 0.0134277, 0.00380325, 0.000601292, -0.477295, -0.360352, 0.794434, 0.787109, -0.481934, 0.994629, 18.9375, -0.487305, 10.7109, Static
-0.0115967, 0.00732422, 1.49608e-05, 0.0189209, 0.00516129, 0.00129032, -0.474365, -0.360352, 0.800293, 0.790527, -0.47998, 0.990234, 18.7656, -0.486328, 10.7188, Static
-0.0115967, 0.0134277, 3.21865e-05, 0.0250244, 0.00578308, 0.00273514, -0.470215, -0.357178, 0.79834, 0.793945, -0.475342, 0.994629, 18.4531, -0.490234, 10.7266, Static
-0.00976563, 0.010376, 2.01464e-05, 0.0201416, 0.00555038, 0.00163651, -0.468262, -0.361328, 0.799316, 0.801758, -0.470703, 0.994141, 18.2188, -0.480225, 10.75, Static
-0.00915527, 0.00732422, 1.19805e-05, 0.0164795, 0.00564575, 0.00102234, -0.470215, -0.360352, 0.799316, 0.80127, -0.472168, 0.994629, 18.2813, -0.478271, 10.7109, Static
-0.012207, 0.0128174, 2.19345e-05, 0.0250244, 0.00450516, 0.00181961, -0.465332, -0.358154, 0.802734, 0.805176, -0.470459, 0.994629, 18.0781, -0.479248, 10.625, Static
-0.00793457, 0.00671387, 9.89437e-06, 0.0146484, 0.0036869, 0.000803471, -0.467285, -0.359131, 0.803711, 0.805176, -0.469482, 0.994629, 17.8594, -0.475342, 10.5859, Static
-0.0518799, 0.0518799, 0.000180364, 0.10376, 0.00952911, 0.0146255, -0.42627, -0.346191, 0.820313, 0.803223, -0.467529, 0.983398, 17.7031, -0.503418, 10.5781, Static
-0.0323486, 0.0262451, 0.000152588, 0.0585938, 0.0112762, 0.0125961, -0.445313, -0.348145, 0.8125, 0.807129, -0.466064, 0.990234, 17.6563, -0.484375, 10.5547, Static
-0.0408936, 0.0219727, 0.000103772, 0.0628662, 0.00753403, 0.00886536, -0.445313, -0.357178, 0.81543, 0.807129, -0.467285, 0.990723, 17.6406, -0.492432, 10.6094, Static
-0.0128174, 0.00915527, 1.57952e-05, 0.0219727, 0.00427246, 0.0013485, -0.460205, -0.357178, 0.806641, 0.807129, -0.467529, 0.994629, 17.6563, -0.474365, 10.5781, Static
-0.00976563, 0.00854492, 1.33514e-05, 0.0183105, 0.00369835, 0.00116062, -0.457275, -0.357178, 0.805664, 0.806641, -0.467529, 0.995117, 17.6563, -0.474365, 10.5859, Static
-0.00976563, 0.00671387, 1.34706e-05, 0.0164795, 0.00406265, 0.00116444, -0.460205, -0.356201, 0.806641, 0.808594, -0.466797, 0.995117, 17.5625, -0.470215, 10.5391, Static
-0.00732422, 0.00549316, 1.01924e-05, 0.0128174, 0.00342178, 0.000862122, -0.460205, -0.358154, 0.806641, 0.808594, -0.466797, 0.995117, 17.5156, -0.470215, 10.5391, Static
-0.010376, 0.00488281, 1.06096e-05, 0.0152588, 0.00384331, 0.000923157, -0.459229, -0.357178, 0.806641, 0.808594, -0.466553, 0.995117, 17.5, -0.470215, 10.5234, Static
-0.00915527, 0.00732422, 1.17421e-05, 0.0164795, 0.00372887, 0.000951767, -0.458252, -0.358154, 0.807617, 0.80957, -0.466553, 0.994629, 17.4063, -0.469238, 10.5078, Static
-0.00793457, 0.00366211, 8.58307e-06, 0.0115967, 0.00417328, 0.00097084, -0.458252, -0.356201, 0.808594, 0.810547, -0.465332, 0.995605, 17.3594, -0.468262, 10.4766, Static
-0.00671387, 0.00671387, 6.3777e-06, 0.0134277, 0.00278282, 0.000519276, -0.458252, -0.356201, 0.808594, 0.810547, -0.464111, 0.995117, 17.25, -0.467285, 10.4141, Static
-0.00732422, 0.00366211, 7.03335e-06, 0.0109863, 0.00339699, 0.000759602, -0.456299, -0.356201, 0.808594, 0.811035, -0.463135, 0.995605, 17.1719, -0.466309, 10.4688, Static
-0.00793457, 0.00732422, 1.10865e-05, 0.0152588, 0.00378036, 0.000897884, -0.454346, -0.355225, 0.80957, 0.811035, -0.459961, 0.995605, 17.125, -0.465332, 10.3984, Static
-0.00549316, 0.0128174, 1.09076e-05, 0.0183105, 0.00322533, 0.000890255, -0.451172, -0.356201, 0.811523, 0.811035, -0.45752, 0.995605, 17.0156, -0.462402, 10.4297, Static
-0.00671387, 0.00732422, 6.61612e-06, 0.0140381, 0.00314713, 0.000554085, -0.452393, -0.355225, 0.8125, 0.812012, -0.456055, 0.995117, 16.875, -0.459229, 10.3281, Static
-0.00610352, 0.00854492, 1.40071e-05, 0.0146484, 0.00421524, 0.00122452, -0.448242, -0.354248, 0.814453, 0.812012, -0.454102, 0.994629, 16.7813, -0.459229, 10.3125, Static
-0.012207, 0.00610352, 1.52588e-05, 0.0183105, 0.00496674, 0.00142288, -0.444336, -0.355225, 0.816406, 0.8125, -0.451904, 0.994629, 16.5469, -0.457275, 10.3594, Static
-0.0360107, 0.0238037, 0.000141263, 0.0598145, 0.0124588, 0.0115585, -0.287109, 0.0510254, 0.960449, 0.950684, -0.299072, 0.992188, 7.27734, -0.318115, 0.138184, Static
-0.0360107, 0.0146484, 0.000110805, 0.0506592, 0.00991821, 0.00981903, -0.290283, 0.0480347, 0.958496, 0.952148, -0.299072, 0.995117, 7.25391, -0.312256, 0.145874, Static
-0.0280762, 0.0250244, 0.000113368, 0.0531006, 0.0104828, 0.00944519, -0.280273, 0.0450439, 0.966797, 0.946777, -0.304443, 0.982422, 7.53516, -0.327148, 0.140869, Static
-0.0158691, 0.0213623, 6.36578e-05, 0.0372314, 0.00750732, 0.00542068, -0.286133, 0.0460205, 0.95752, 0.949219, -0.301514, 0.994141, 7.44141, -0.314209, 0.159302, Static
-0.0445557, 0.0439453, 0.000283718, 0.088501, 0.0157623, 0.022995, -0.359131, -0.187134, 0.915527, 0.898926, -0.376953, 0.982422, 11.5078, -0.415283, 3.31055, Static
-0.0183105, 0.0463867, 0.000154972, 0.0646973, 0.0123978, 0.0126343, -0.352295, -0.190186, 0.91748, 0.900391, -0.374756, 0.990234, 11.3828, -0.388184, 3.27734, Static
-0.0152588, 0.0140381, 3.54052e-05, 0.0292969, 0.0056076, 0.00287437, -0.362305, -0.19812, 0.908691, 0.902344, -0.371826, 0.993652, 11.1875, -0.390137, 3.32617, Static
-0.032959, 0.0463867, 0.00020957, 0.0793457, 0.0142975, 0.0169983, -0.345215, -0.189087, 0.915527, 0.901367, -0.37085, 0.993652, 11.1406, -0.39624, 3.30273, Static
-0.0170898, 0.00976563, 2.10404e-05, 0.0268555, 0.00416183, 0.00188351, -0.360352, -0.199097, 0.908691, 0.902344, -0.368896, 0.996582, 10.9766, -0.378174, 3.30859, Static
-0.0115967, 0.00671387, 1.46031e-05, 0.0183105, 0.00355721, 0.00129223, -0.363281, -0.19812, 0.907715, 0.902344, -0.369873, 0.996582, 11.0234, -0.374268, 3.29688, Static
-0.0134277, 0.00732422, 1.35899e-05, 0.020752, 0.0043602, 0.00122929, -0.363281, -0.19812, 0.907715, 0.902344, -0.370605, 0.995605, 11.0547, -0.378174, 3.29688, Static
-0.00976563, 0.00488281, 8.64267e-06, 0.0146484, 0.00341606, 0.000939369, -0.365234, -0.199097, 0.906738, 0.902344, -0.371094, 0.995605, 11.1094, -0.373291, 3.2832, Static
-0.0238037, 0.0109863, 7.27773e-05, 0.03479, 0.00914764, 0.00648117, -0.979492, -0.0600586, 0.0630493, 0.0574951, -0.993652, 0.983398, 79.3125, -0.996582, 0.324951, Static
-0.0128174, 0.0152588, 2.97427e-05, 0.0280762, 0.00717545, 0.00240898, -0.982422, -0.0540161, 0.0630493, 0.0578918, -0.994629, 0.98584, 79.375, -0.993652, 0.280762, Static
-0.0158691, 0.0128174, 3.54052e-05, 0.0286865, 0.00629044, 0.00300598, -0.981445, -0.052002, 0.0650635, 0.0592651, -0.993652, 0.984863, 79.375, -0.993652, 0.246338, Static
-0.00915527, 0.0115967, 2.99215e-05, 0.020752, 0.00622177, 0.00242424, -0.981445, -0.0530396, 0.0640259, 0.0597534, -0.994629, 0.984863, 79.1875, -0.993652, 0.238892, Static
-0.0146484, 0.00671387, 2.3067e-05, 0.0213623, 0.00571823, 0.00229454, -0.98584, -0.0500488, 0.0650635, 0.0600586, -0.994629, 0.98877, 79.375, -0.993652, 0.228271, Static
-0.0115967, 0.00976563, 1.80602e-05, 0.0213623, 0.00490952, 0.00149632, -0.984375, -0.0500488, 0.0640259, 0.06073, -0.993652, 0.987793, 79.3125, -0.992676, 0.223389, Static
-0.0140381, 0.00671387, 1.48416e-05, 0.020752, 0.0051651, 0.00161648, -0.984375, -0.0480347, 0.0650635, 0.0606689, -0.994629, 0.987793, 79.1875, -0.994629, 0.211792, Static
-0.010376, 0.00732422, 1.22786e-05, 0.0177002, 0.00469971, 0.00099659, -0.980469, -0.0469971, 0.0650635, 0.0613403, -0.992188, 0.983887, 79.4375, -0.994629, 0.19519, Static
-0.00915527, 0.00854492, 1.48416e-05, 0.0177002, 0.00492477, 0.00121975, -0.981445, -0.0450439, 0.0670166, 0.0626221, -0.993652, 0.984863, 79.4375, -0.995605, 0.189453, Static
-0.00610352, 0.00671387, 7.27177e-06, 0.0128174, 0.00391006, 0.000588417, -0.981445, -0.0450439, 0.0690308, 0.0643921, -0.993652, 0.984863, 79.375, -0.995605, 0.186768, Static
-0.0128174, 0.0158691, 2.72989e-05, 0.0286865, 0.00580597, 0.00236702, -0.983398, -0.0460205, 0.0730591, 0.0685425, -0.993652, 0.987305, 79.25, -0.992676, 0.195068, Static
-0.00854492, 0.00854492, 1.3113e-05, 0.0170898, 0.0042305, 0.0010643, -0.982422, -0.0469971, 0.078064, 0.0718384, -0.991699, 0.986328, 79.25, -0.993652, 0.199463, Static
-0.012207, 0.00427246, 9.53674e-06, 0.0164795, 0.00444412, 0.00123978, -0.982422, -0.0469971, 0.0770264, 0.0721436, -0.993652, 0.986816, 79.3125, -0.995605, 0.192871, Static
-0.00488281, 0.00610352, 6.4373e-06, 0.0109863, 0.00340271, 0.000528336, -0.983398, -0.0450439, 0.078064, 0.0721436, -0.993164, 0.987305, 79.25, -0.992676, 0.184204, Static
-0.00549316, 0.0152588, 1.83582e-05, 0.020752, 0.00531006, 0.0016346, -0.983398, -0.0450439, 0.0860596, 0.0751953, -0.993652, 0.987793, 79.1875, -0.995605, 0.187012, Static
-0.00793457, 0.00854492, 1.11461e-05, 0.0164795, 0.00411987, 0.000938416, -0.266113, -0.357178, 0.891602, 0.888184, -0.27124, 0.995605, 6.00781, -0.279297, 10.5078, Static
-0.00915527, 0.00793457, 1.47223e-05, 0.0170898, 0.00451279, 0.00120354, -0.259277, -0.357178, 0.893555, 0.894531, -0.267578, 0.996582, 5.81641, -0.273193, 10.4141, Static
-0.0152588, 0.00732422, 1.41859e-05, 0.022583, 0.00477219, 0.00119209, -0.26123, -0.355225, 0.898438, 0.893066, -0.26709, 0.989746, 5.77344, -0.27417, 10.4063, Static
-0.0146484, 0.00793457, 2.03848e-05, 0.022583, 0.00498581, 0.001688, -0.256104, -0.355225, 0.894531, 0.895996, -0.264893, 0.995605, 5.6875, -0.27417, 10.3516, Static
-0.00915527, 0.00732422, 1.74642e-05, 0.0164795, 0.00424194, 0.00144482, -0.255127, -0.355225, 0.894531, 0.895996, -0.265381, 0.996094, 5.67969, -0.272217, 10.3281, Static
-0.00732422, 0.00854492, 1.19209e-05, 0.0158691, 0.00392151, 0.000966072, -0.253174, -0.355225, 0.895508, 0.895996, -0.261963, 0.995117, 5.5625, -0.268066, 10.2813, Static
-0.00793457, 0.00610352, 1.00136e-05, 0.0140381, 0.00333977, 0.000876904, -0.255127, -0.354248, 0.895508, 0.896484, -0.261475, 0.996094, 5.52734, -0.26709, 10.3047, Static
-0.00915527, 0.00915527, 1.58548e-05, 0.0183105, 0.00429916, 0.0013237, -0.253174, -0.354248, 0.897461, 0.896484, -0.261719, 0.996094, 5.47266, -0.269287, 10.2344, Static
-0.010376, 0.00854492, 1.7941e-05, 0.0189209, 0.00468063, 0.00152016, -0.249146, -0.354248, 0.897461, 0.896484, -0.260498, 0.995605, 5.46094, -0.266113, 10.2656, Static
-0.00854492, 0.00915527, 1.29938e-05, 0.0177002, 0.00405884, 0.00111485, -0.251221, -0.355225, 0.896484, 0.896484, -0.259521, 0.995605, 5.44922, -0.26416, 10.2422, Static
-0.00671387, 0.00549316, 8.34465e-06, 0.012207, 0.00345421, 0.000738144, -0.25415, -0.354248, 0.896484, 0.896484, -0.260254, 0.996094, 5.42578, -0.26416, 10.2344, Static
-0.0164795, 0.00610352, 1.54376e-05, 0.022583, 0.00435638, 0.00134087, -0.248169, -0.353271, 0.897461, 0.896484, -0.259766, 0.994629, 5.44141, -0.268066, 10.2188, Static
-0.0140381, 0.010376, 3.75509e-05, 0.0244141, 0.00760269, 0.00309753, -0.246216, -0.349121, 0.901367, 0.896484, -0.258789, 0.992188, 5.42188, -0.26709, 10.2188, Static
-0.0146484, 0.0134277, 4.17233e-05, 0.0280762, 0.00797272, 0.00346184, -0.244141, -0.348145, 0.900391, 0.897461, -0.256104, 0.994141, 5.30078, -0.26709, 10.1406, Static
-0.00976563, 0.00549316, 1.27554e-05, 0.0152588, 0.00457001, 0.00118351, -0.247192, -0.350342, 0.899414, 0.897461, -0.256348, 0.996094, 5.34375, -0.263184, 10.125, Static
-0.0195313, 0.00671387, 3.1054e-05, 0.0262451, 0.00545883, 0.00304413, -0.250244, -0.347168, 0.899414, 0.897461, -0.256836, 0.996094, 5.34766, -0.265137, 10.1016, Static
-0.0158691, 0.0427246, 0.0001176, 0.0585938, 0.0189819, 0.00974274, -0.970703, 0.116089, -0.0250244, -0.0394592, -0.990234, 0.977051, 78.75, -0.996582, 0.957031, Static
-0.022583, 0.0146484, 8.52942e-05, 0.0372314, 0.0158081, 0.00944519, -0.966797, 0.117065, -0.0289917, -0.0390625, -0.990234, 0.973145, 78.75, -0.995605, 1.01172, Static
-0.0231934, 0.0183105, 6.13928e-05, 0.0415039, 0.0116501, 0.00499725, -0.973633, 0.115051, -0.03302, -0.0446472, -0.987793, 0.97998, 78.8125, -0.992676, 0.991699, Static
-0.0170898, 0.0109863, 4.33922e-05, 0.0280762, 0.0108643, 0.0039444, -0.976563, 0.115051, -0.0370483, -0.0447083, -0.987793, 0.983887, 78.6875, -0.996582, 0.980469, Static
-0.0170898, 0.00915527, 4.5836e-05, 0.0262451, 0.0110931, 0.00388336, -0.975586, 0.115051, -0.0380249, -0.0455017, -0.989258, 0.982422, 78.8125, -0.992676, 0.992188, Static
-0.0140381, 0.0219727, 7.98702e-05, 0.0360107, 0.0141296, 0.00680542, -0.974609, 0.116089, -0.0289917, -0.0411072, -0.987793, 0.981445, 78.8125, -0.996582, 1.01953, Static
-0.012207, 0.00854492, 2.80142e-05, 0.020752, 0.0104523, 0.00286293, -0.975586, 0.118042, -0.0300293, -0.0422974, -0.986816, 0.98291, 78.8125, -0.994629, 1.04395, Static
-0.010376, 0.0128174, 4.27365e-05, 0.0231934, 0.0117264, 0.00349808, -0.973633, 0.11908, -0.0339966, -0.0421448, -0.990234, 0.97998, 78.5625, -0.995605, 1.06836, Static
-0.0164795, 0.010376, 2.49743e-05, 0.0268555, 0.0104752, 0.00313377, -0.97168, 0.11908, -0.03302, -0.0433044, -0.988281, 0.979004, 78.5, -0.996582, 1.05371, Static
-0.0140381, 0.0170898, 4.35114e-05, 0.0311279, 0.0115662, 0.00387764, -0.973633, 0.120056, -0.0339966, -0.045166, -0.986816, 0.980469, 78.6875, -0.992676, 1.05762, Static
-0.0128174, 0.0140381, 3.34382e-05, 0.0268555, 0.0104218, 0.00327873, -0.973633, 0.12207, -0.0339966, -0.0408936, -0.986816, 0.980957, 78.8125, -0.993652, 1.13574, Static
-0.0244141, 0.0195313, 8.11219e-05, 0.0439453, 0.0127945, 0.00681305, -0.973633, 0.126099, -0.0339966, -0.043335, -0.990234, 0.980957, 78.5625, -0.991699, 1.20801, Static
-0.0134277, 0.0158691, 4.6134e-05, 0.0292969, 0.0116043, 0.00374413, -0.967773, 0.128052, -0.0300293, -0.0393066, -0.985352, 0.975586, 78.3125, -0.992676, 1.22852, Static
-0.0158691, 0.0183105, 3.60012e-05, 0.0341797, 0.00894165, 0.00408936, -0.522461, -0.194092, 0.822266, 0.813477, -0.531738, 0.991699, 22.9375, -0.541504, 3.28711, Static
-0.00793457, 0.0109863, 1.39475e-05, 0.0189209, 0.00442886, 0.00112915, -0.521484, -0.200195, 0.82373, 0.817871, -0.529297, 0.994141, 22.5, -0.53125, 3.32227, Static
-0.00610352, 0.00854492, 9.23872e-06, 0.0146484, 0.0039978, 0.000751019, -0.519531, -0.199097, 0.824707, 0.817871, -0.525391, 0.994629, 22.2813, -0.530273, 3.32617, Static
-0.0115967, 0.00976563, 1.71661e-05, 0.0213623, 0.00514603, 0.00175095, -0.513184, -0.199097, 0.827637, 0.818848, -0.521484, 0.993164, 21.9375, -0.530273, 3.31445, Static
-0.0250244, 0.0177002, 5.59688e-05, 0.0427246, 0.00834656, 0.00489044, -0.51123, -0.191162, 0.82959, 0.822754, -0.520996, 0.992676, 21.8125, -0.52832, 3.28516, Static
-0.00549316, 0.00732422, 1.15633e-05, 0.0128174, 0.00409698, 0.000955582, -0.512207, -0.199097, 0.828613, 0.822754, -0.52002, 0.995117, 21.6875, -0.521484, 3.29492, Static
-0.00732422, 0.00610352, 1.13249e-05, 0.0134277, 0.00386047, 0.000940323, -0.512207, -0.19812, 0.82959, 0.830566, -0.515625, 0.994629, 21.5781, -0.519531, 3.2832, Static
-0.00793457, 0.00671387, 1.03116e-05, 0.0146484, 0.00382233, 0.000833988, -0.507324, -0.199097, 0.830566, 0.833496, -0.51416, 0.993652, 21.4844, -0.521484, 3.29688, Static
-0.00671387, 0.00427246, 6.02007e-06, 0.0109863, 0.00328827, 0.000552654, -0.508301, -0.19812, 0.831543, 0.834961, -0.512207, 0.995117, 21.4219, -0.518555, 3.27734, Static
-0.00366211, 0.00427246, 4.05312e-06, 0.00793457, 0.00272942, 0.000342131, -0.508301, -0.197144, 0.83252, 0.834961, -0.51123, 0.994629, 21.3438, -0.518555, 3.24609, Static
-0.00732422, 0.00793457, 1.055e-05, 0.0152588, 0.00392532, 0.000859737, -0.504395, -0.197144, 0.834473, 0.834961, -0.508789, 0.994141, 21.1563, -0.518555, 3.25195, Static
-0.00671387, 0.00427246, 4.41074e-06, 0.0109863, 0.002882, 0.000421762, -0.503418, -0.19812, 0.833496, 0.835938, -0.508301, 0.994141, 21, -0.515137, 3.25195, Static
-0.0201416, 0.0164795, 4.4167e-05, 0.0366211, 0.00660324, 0.00368118, -0.510254, -0.353271, 0.772461, 0.769043, -0.525391, 0.988281, 22.2344, -0.537109, 10.2891, Static
-0.0408936, 0.0415039, 0.000271559, 0.0823975, 0.0182953, 0.0270844, -0.510254, -0.347168, 0.772461, 0.757324, -0.531738, 0.987305, 23.0313, -0.550293, 10.2734, Static
-0.0585938, 0.0482178, 0.000466108, 0.106812, 0.0223541, 0.0380249, -0.524414, -0.340332, 0.766602, 0.755371, -0.535645, 0.989258, 23.3438, -0.558594, 10.2266, Static
-0.0189209, 0.0183105, 6.60419e-05, 0.0372314, 0.00908661, 0.00537491, -0.520508, -0.351318, 0.767578, 0.767578, -0.530273, 0.992676, 22.625, -0.536133, 10.3203, Static
-0.00549316, 0.00915527, 7.39098e-06, 0.0146484, 0.00304604, 0.000600815, -0.521484, -0.354248, 0.768555, 0.772949, -0.52832, 0.994141, 22.4688, -0.53125, 10.3125, Static
-0.00915527, 0.00793457, 1.5378e-05, 0.0170898, 0.00533295, 0.00147915, -0.51709, -0.354248, 0.769531, 0.772949, -0.525879, 0.993164, 22.2813, -0.52832, 10.3203, Static
-0.00671387, 0.00854492, 1.055e-05, 0.0152588, 0.00386429, 0.000864029, -0.518555, -0.352295, 0.770508, 0.773438, -0.52832, 0.993652, 22.4063, -0.529297, 10.2109, Static
-0.0109863, 0.00549316, 1.09673e-05, 0.0164795, 0.00448608, 0.00131035, -0.515137, -0.350342, 0.770508, 0.772949, -0.52832, 0.992676, 22.4844, -0.53418, 10.1484, Static
-0.00671387, 0.00610352, 7.33137e-06, 0.0128174, 0.00306702, 0.000634193, -0.522461, -0.350342, 0.770508, 0.772949, -0.529785, 0.993652, 22.5313, -0.530273, 10.1094, Static
-0.00732422, 0.00488281, 5.30481e-06, 0.012207, 0.00276375, 0.000505447, -0.519531, -0.348145, 0.770508, 0.773926, -0.529297, 0.994141, 22.5156, -0.53125, 10.0391, Static
-0.010376, 0.00488281, 7.03335e-06, 0.0152588, 0.00323486, 0.000722885, -0.521484, -0.347168, 0.770508, 0.773926, -0.528809, 0.994141, 22.4688, -0.530273, 10, Static
-0.0244141, 0.020752, 0.000114441, 0.045166, 0.0132904, 0.00927734, -0.939453, 0.295166, 0.0200195, 0.0126495, -0.946777, 0.982422, 73.3125, -0.959473, 6.76172, Static
-0.0744629, 0.0512695, 0.000373363, 0.125732, 0.0187988, 0.0302734, -0.93457, 0.303223, 0.0280151, 0.0152283, -0.943848, 0.979492, 72.8125, -0.970703, 6.9375, Static
-0.0360107, 0.0341797, 0.000197172, 0.0701904, 0.0162354, 0.0160675, -0.933594, 0.303223, 0.0250244, 0.016098, -0.944336, 0.978027, 72.9375, -0.963379, 7.12891, Static
-0.0231934, 0.032959, 0.000145316, 0.0561523, 0.0153732, 0.0117874, -0.931641, 0.304199, 0.0270386, 0.016922, -0.943848, 0.977051, 72.9375, -0.963379, 7.19531, Static
-0.0402832, 0.0421143, 0.00022006, 0.0823975, 0.0160522, 0.0178375, -0.929688, 0.304199, 0.0300293, 0.0209503, -0.944336, 0.975586, 72.6875, -0.963379, 7.19922, Static
-0.022583, 0.0274658, 0.0001297, 0.0500488, 0.0137482, 0.0106583, -0.933594, 0.306152, 0.0289917, 0.021225, -0.941406, 0.979492, 72.75, -0.95752, 7.34375, Static
-0.0317383, 0.0366211, 0.0002141, 0.0683594, 0.0157013, 0.0173645, -0.93457, 0.309326, 0.0310059, 0.0227661, -0.940918, 0.97998, 72.1875, -0.955566, 7.53125, Static
-4.49219, 2.29883, 2.62695, 6.79297, 1.56934, 214.875, 0.584473, 0.94873, 0.933594, 0.667969, -0.0720825, 0.705078, 5.88672, -0.655273, 46.25, Screwdriving-Correct
-8.40625, 4.125, 11.3984, 12.5313, 3.13867, 924, 1.15332, 1.10742, 0.890625, 0.48999, 0.056427, 0.674316, 17.25, -0.890625, 58.9375, Screwdriving-Correct
-8.92188, 6.125, 12.9063, 15.0469, 3.45703, 1060, 1.50684, 1.25684, 0.825684, 0.4646, -0.00495911, 0.693359, 23.25, -0.977539, 63.9688, Screwdriving-Correct
-9.1875, 6.00781, 16.3438, 15.1953, 3.83398, 1338, 1.33203, 1.24512, 0.764648, 0.419434, 0.136963, 0.835449, 34.1875, -0.862305, 67.3125, Screwdriving-Correct
-7.78125, 6.34375, 12.9063, 14.125, 3.53125, 1071, 1.39063, 1.40625, 0.904785, 0.38623, 0.170654, 0.801758, 24.9219, -0.945801, 65.8125, Screwdriving-Correct
-5.71875, 6.71484, 9.85938, 12.4375, 3.125, 804.5, 1.11621, 1.21484, 0.98584, 0.335205, 0.294922, 0.795898, 22.4844, -0.566406, 64.3125, Screwdriving-Correct
-9.35156, 6.14063, 11.9219, 15.4922, 3.2168, 969, 1.53613, 1.21484, 1.0498, 0.386719, 0.327393, 0.787109, 28.125, -0.505371, 60.8438, Screwdriving-Correct
-9.10156, 5.28516, 14.6797, 14.3906, 3.73242, 1191, 1.47852, 1.25195, 0.783691, 0.44458, 0.230713, 0.786621, 34.5, -1.08789, 60.0625, Screwdriving-Correct
-9.07813, 6.80469, 18.2813, 15.8828, 4.25391, 1493, 2.17188, 1.42285, 1.10742, 0.421387, 0.132202, 0.79834, 46.4375, -1.15625, 65.6875, Screwdriving-Correct
-10.8359, 5.99609, 14.3125, 16.8438, 3.58984, 1173, 2.66211, 1.5, 0.905762, 0.394287, 0.0296631, 0.80957, 44.6875, -1.3252, 71.5625, Screwdriving-Correct
-4.54297, 4.17969, 5.07422, 8.72656, 2.45898, 411.25, 0.802734, 1.01367, 0.769531, 0.500488, 0.260254, 0.864746, 11.2891, -0.38916, 56.625, Screwdriving-Correct
-4.62891, 5.83594, 8.27344, 10.4688, 2.83984, 672.5, 1.07617, 1.0957, 0.727539, 0.447266, 0.185059, 0.882324, 14.3906, -0.645508, 62.875, Screwdriving-Correct
-5.93359, 8.40625, 13.2891, 14.3438, 3.72266, 1077, 1.55273, 1.25098, 0.963379, 0.401611, 0.137695, 0.86377, 34.6875, -0.906738, 67.5, Screwdriving-Correct
-7.26953, 9.82031, 16.8281, 17.0938, 3.91992, 1364, 1.49219, 1.35352, 0.992676, 0.400146, 0.169189, 0.684082, 41.5313, -1.86523, 65.75, Screwdriving-Correct
-4.86328, 3.86523, 7.71875, 8.73438, 2.90234, 631.5, 0.870605, 1.13379, 0.776367, 0.543945, 0.0845947, 0.721191, 16.4375, -0.733398, 57.2188, Screwdriving-Correct
-3.86719, 3.57813, 4.40234, 7.44531, 2.25195, 357, 0.622559, 0.997559, 0.784668, 0.61084, 0.0754395, 0.757324, 7.15625, -0.54834, 48.7813, Screwdriving-Correct
-5.05859, 3.93555, 4.50781, 9, 2.2207, 365.25, 0.622559, 1.0127, 0.850586, 0.635254, 0.0487061, 0.80127, 7.50391, -0.749512, 48.3125, Screwdriving-Correct
-4.59766, 3.50391, 5.28125, 8.10156, 2.33203, 434, 0.777344, 1.0459, 0.922363, 0.614746, 0.0405884, 0.791016, 9.58594, -0.789551, 50.7188, Screwdriving-Correct
-5.76563, 4.34375, 6.17578, 10.1094, 2.60156, 505.5, 0.830566, 0.976563, 0.961426, 0.638672, 0.0157776, 0.797852, 13.7734, -0.724609, 47.5625, Screwdriving-Correct
-4.94922, 10.7188, 14.0469, 15.6719, 3.62109, 1142, 2.0293, 1.29492, 1.07227, 0.434082, 0.0560303, 0.787109, 28.0156, -1.06836, 65.75, Screwdriving-Correct
-6.01172, 6.84766, 14.875, 12.8594, 4.14844, 1209, 1.20215, 1.16992, 0.758301, 0.414795, 0.116638, 0.793945, 23.2188, -0.69043, 68.5, Screwdriving-Correct
-7.1875, 7.28906, 17.625, 14.4766, 4.42188, 1430, 1.51953, 1.15625, 0.790527, 0.378418, 0.127563, 0.765625, 30, -0.845703, 67.8125, Screwdriving-Correct
-5.89063, 7.17969, 10.5, 13.0703, 3.41016, 853, 1.55859, 1.1875, 0.98584, 0.485352, 0.16333, 0.762695, 25.9844, -0.583496, 61.0625, Screwdriving-Correct
-8.41406, 7.49219, 16.5, 15.9063, 4.10938, 1337, 1.29199, 1.25, 1.08105, 0.384521, 0.260254, 0.762207, 33.2813, -0.772461, 67.375, Screwdriving-Correct
-6.00781, 4.39063, 7.67969, 10.3984, 3.12695, 622.5, 1.12598, 1.24316, 1.00977, 0.636719, 0.0225067, 0.679199, 21.3594, -1.4541, 47.9375, Screwdriving-Correct
-5.41406, 5.5625, 9.85156, 10.9766, 3.43359, 799.5, 0.921387, 1.04395, 1.01758, 0.641602, 0.0614929, 0.730469, 17.8125, -0.982422, 47.625, Screwdriving-Correct
-7.08984, 5.86719, 9.54688, 12.9609, 3.47656, 777, 1.30176, 1.13965, 1.17285, 0.62207, 0.0794678, 0.807617, 26.375, -1.29297, 48.125, Screwdriving-Correct
-5.28516, 6.66797, 9.25781, 11.9531, 3.28516, 759.5, 1.26953, 1.05078, 1.12988, 0.643066, 0.112976, 0.726563, 23.5781, -1.47852, 47.125, Screwdriving-Correct
-5.375, 7.5, 15.6563, 12.875, 4.41016, 1277, 1.15723, 1.1875, 1.12598, 0.453369, 0.149048, 0.714844, 28.1719, -1.23828, 65.9375, Screwdriving-Correct
-5.03125, 7.99219, 9.05469, 13.0234, 3.28711, 743.5, 1.49316, 1.31152, 1.09766, 0.588867, 0.194702, 0.686523, 28.2656, -0.915527, 49.5313, Screwdriving-Correct
-3.28906, 5.61328, 3.40625, 8.90625, 1.96582, 276.25, 1.48828, 1.09668, 1.31543, 0.701172, 0.164063, 0.76123, 15.5938, -0.660645, 39.375, Screwdriving-Correct
-4.29688, 5.75781, 8.60156, 10.0547, 3.38672, 699, 1.53613, 1.07617, 0.84375, 0.603516, 0.172363, 0.795898, 26.8125, -0.782715, 50.375, Screwdriving-Correct
-4.63672, 5.58594, 8.8125, 10.2266, 3.39844, 725.5, 1.45996, 1.05762, 0.921387, 0.615234, 0.198364, 0.765137, 25.7344, -0.588379, 46.375, Screwdriving-Correct
-3.4375, 6.51953, 1.88281, 9.96094, 0.908203, 153.125, 1.67383, 0.970703, 0.924805, 0.774414, 0.226318, 0.806641, 17.5, -0.727539, 28.6719, Screwdriving-Correct
-1.29199, 1.55469, 0.32959, 2.84766, 0.759277, 26.7813, 0.187134, 0.696289, 1.0459, 0.839844, -0.102844, 0.79834, 1.79883, -0.418213, 23.7344, Screwdriving-Incorrect
-1.6709, 1.02637, 0.307861, 2.69727, 0.91748, 25, 0.193115, 0.696289, 1.13965, 0.864258, -0.106201, 0.643555, 3.31445, -0.678223, 20.0469, Screwdriving-Incorrect
-2.51563, 1.6709, 0.888672, 4.1875, 1.5332, 72.375, 0.434326, 0.683594, 1.21973, 0.893555, -0.114197, 0.657227, 5.80859, -0.642578, 14.2734, Screwdriving-Incorrect
-2.69141, 1.32324, 0.551758, 4.01563, 1.10449, 45.2813, 0.2771, 0.945801, 1.24609, 0.893066, -0.185913, 0.662109, 5.32422, -0.710449, 14.7969, Screwdriving-Incorrect
-1.41699, 1.06543, 0.359863, 2.48242, 0.946289, 29.5781, 0.0950317, 0.553223, 1.09375, 0.919922, -0.163696, 0.789063, 3.59375, -0.530273, 11.3672, Screwdriving-Incorrect
-1.52637, 0.908691, 0.344971, 2.43555, 0.869141, 28.125, 0.194092, 0.594238, 1.15918, 0.918457, -0.139282, 0.844238, 3.1582, -0.520508, 12.3281, Screwdriving-Incorrect
-1.37793, 0.836426, 0.268066, 2.21484, 0.862793, 21.9375, 0.106079, 0.63623, 1.20703, 0.913574, -0.134033, 0.768555, 2.67969, -0.39624, 11.6641, Screwdriving-Incorrect
-1.97754, 0.974609, 0.28833, 2.95313, 0.955566, 23.5938, 0.217163, 0.535156, 1.20898, 0.92627, -0.0933228, 0.806641, 3.32422, -0.563477, 10.3359, Screwdriving-Incorrect
-1.06641, 0.933105, 0.202026, 2, 0.76709, 16.8125, 0.172119, 0.54248, 1.15137, 0.905273, -0.134399, 0.738281, 2.83398, -0.41626, 11.6641, Screwdriving-Incorrect
-1.92188, 1.35352, 0.540527, 3.27539, 1.06641, 44.4688, 0.241211, 0.649414, 1.25586, 0.956055, -0.122498, 0.685547, 3.24219, -0.491211, 8.17969, Screwdriving-Incorrect
-1.4043, 1.07715, 0.278809, 2.48242, 0.938965, 23.0781, 0.182129, 0.377197, 1.15332, 0.953125, -0.136353, 0.864746, 3.11914, -0.452393, 6.83594, Screwdriving-Incorrect
-2.86914, 1.55078, 0.607422, 4.42188, 1.34961, 49.2188, 0.959473, 0.911621, 1.22363, 0.944336, -0.0982666, 0.626465, 8.625, -0.6875, 10.6094, Screwdriving-Incorrect
-1.23145, 1.79395, 0.405518, 3.02539, 1.15625, 32.875, 0.246216, 0.674316, 1.26953, 0.942383, -0.106689, 0.507813, 3.45703, -0.457275, 10.1328, Screwdriving-Incorrect
-1.30176, 1.00098, 0.2771, 2.30273, 1.23242, 22.4688, 0.244141, 0.51709, 1.2207, 0.956055, -0.142212, 0.680664, 4.97656, -0.596191, 8.44531, Screwdriving-Incorrect
-1.17285, 1.08301, 0.270508, 2.25586, 1.42676, 21.9531, 0.366211, 0.521484, 1.30176, 0.973633, -0.157959, 0.670898, 4.58594, -0.638184, 6.86719, Screwdriving-Incorrect
-1.46582, 1.53418, 0.395752, 3, 1.48535, 32.5, 0.309326, 0.532227, 1.20801, 0.947754, -0.175537, 0.577148, 7.59375, -0.735352, 9.71094, Screwdriving-Incorrect
-1.27051, 1.72656, 0.459473, 2.99805, 1.24414, 37.7813, 0.262207, 0.611328, 1.16895, 0.888184, -0.165527, 0.580566, 6.26953, -0.649414, 12.5625, Screwdriving-Incorrect
-1.56836, 1.10645, 0.445068, 2.67578, 1.30176, 36.2188, 0.981445, 0.95752, 1.34082, 0.932129, -0.0768433, 0.70459, 5.98047, -0.691406, 12.5078, Screwdriving-Incorrect
-2.62109, 1.31543, 0.609863, 3.9375, 1.35938, 49.5938, 0.480225, 0.890625, 1.20801, 0.938965, -0.0958862, 0.756836, 7.05859, -0.689453, 11.1797, Screwdriving-Incorrect
-1.7002, 1.47852, 0.444092, 3.17969, 1.24609, 37.2813, 0.51416, 0.861328, 1.2666, 0.949219, -0.086792, 0.633789, 4.94141, -0.709473, 11.1484, Screwdriving-Incorrect
-1.70313, 2.29688, 0.51416, 4, 1.1709, 42.5625, 0.300293, 0.685547, 1.27734, 0.916016, -0.176025, 0.631348, 5.89844, -0.573242, 11.4922, Screwdriving-Incorrect
-1.58789, 1.62695, 0.504395, 3.21484, 1.25293, 41.1563, 0.345215, 0.869629, 1.17285, 0.91748, -0.132324, 0.728027, 4.75391, -0.909668, 12.8203, Screwdriving-Incorrect
-1.30273, 0.947754, 0.217163, 2.25195, 0.795898, 17.6563, 0.211182, 0.852539, 1.15527, 0.898926, -0.120117, 0.773926, 2.78711, -0.555176, 12.5781, Screwdriving-Incorrect
-0.88623, 1.3623, 0.27124, 2.25, 0.737793, 22.0625, 0.18811, 0.775391, 1.12695, 0.897461, -0.125122, 0.816895, 2.38281, -0.352295, 17.6563, Screwdriving-Incorrect
-0.973145, 1.12598, 0.240845, 2.09961, 0.703613, 19.7188, 0.186157, 0.717285, 1.12598, 0.889648, -0.133667, 0.815918, 2.78125, -0.411377, 15.5469, Screwdriving-Incorrect
-0.541992, 0.776367, 0.0601196, 1.31836, 0.773926, 4.97656, 0.0800171, 0.368164, 1.13477, 0.950684, -0.155762, 0.866699, 2.77148, -0.418213, 5.48438, Screwdriving-Incorrect
-0.807617, 0.515625, 0.09375, 1.32324, 0.712402, 7.59766, 0.12915, 0.452393, 1.10059, 0.960938, -0.133179, 0.84668, 2.41211, -0.320313, 6.12109, Screwdriving-Incorrect
-0.632813, 0.756836, 0.0904541, 1.38965, 0.637695, 7.45313, 0.06604, 0.63623, 1.15137, 0.942871, -0.153809, 0.859863, 3.09766, -0.557129, 7.82422, Screwdriving-Incorrect
-1.03809, 1.01465, 0.213013, 2.05273, 0.942383, 17.3125, 0.131104, 0.616211, 1.11035, 0.899902, -0.153687, 0.744629, 3.44727, -0.473389, 14.2969, Screwdriving-Incorrect
-0.759766, 1.50977, 0.245972, 2.26953, 0.820313, 20.0313, 0.0870361, 0.524414, 1.125, 0.923828, -0.13916, 0.808594, 3.17383, -0.505371, 12.5781, Screwdriving-Incorrect
-2.11328, 1.49707, 0.631836, 3.61133, 1.41504, 51.3438, 1.06445, 0.854492, 1.3877, 0.916992, -0.127075, 0.688477, 14.0313, -1.00195, 14, Screwdriving-Incorrect
-1.94922, 1.12109, 0.32373, 3.07031, 1.41504, 26.3906, 0.664551, 0.751465, 1.37402, 0.936035, -0.114502, 0.706055, 10.2656, -0.648438, 15.1875, Screwdriving-Incorrect
-1.77051, 1.15137, 0.393799, 2.92188, 1.36035, 31.9844, 0.830566, 0.828613, 1.22852, 0.913574, -0.0631104, 0.615234, 10.5078, -0.597168, 13.3984, Screwdriving-Incorrect
-1.68262, 1.86426, 0.471924, 3.54688, 1.17969, 38.25, 0.678223, 0.900391, 1.26758, 0.902344, -0.147583, 0.762695, 8.10938, -0.694336, 16.4531, Screwdriving-Incorrect
-1.72656, 2.18555, 0.942871, 3.91211, 1.27832, 76.4375, 0.290283, 0.67334, 1.16113, 0.901367, -0.138428, 0.632813, 6.10938, -0.768555, 16.0781, Screwdriving-Incorrect
-1.19141, 2.06836, 0.567871, 3.25977, 1.12695, 46.125, 0.286133, 0.55957, 1.14551, 0.895996, -0.130737, 0.710938, 5.42969, -0.675293, 14.3516, Screwdriving-Incorrect
-1.39941, 1.22949, 0.308838, 2.62891, 0.91748, 27.3438, 0.201172, 0.693359, 1.10645, 0.852051, -0.277588, 0.785156, 12.2031, -0.733398, 13.7656, Screwdriving-Incorrect
-1.83105, 2.33008, 0.436768, 4.16406, 1.11523, 47.1563, 0.231201, 0.55957, 1.15039, 0.849609, -0.320068, 0.846191, 14.6172, -0.730469, 10.2656, Screwdriving-Incorrect
-0.990723, 0.641602, 0.192261, 1.63281, 0.802734, 18.5938, 0.376221, 0.553223, 1.125, 0.898926, -0.0317688, 0.755371, 3.39648, -0.523438, 15.7578, Screwdriving-Incorrect
-0.615723, 1.19238, 0.0811768, 1.80859, 0.675293, 7.20313, -0.0209961, 0.543457, 1.1084, 0.909668, -0.20813, 0.749023, 4.33203, -0.547363, 10.1406, Screwdriving-Incorrect
-0.854492, 0.548828, 0.0980225, 1.40332, 0.474609, 8.85156, 0.0180054, 0.158081, 1.08789, 0.989258, -0.185425, 0.841309, 3.69531, -0.428223, 0.516602, Screwdriving-Incorrect
-0.641113, 0.280273, 0.0523987, 0.921387, 0.44873, 4.78125, -0.773438, 0.42627, 0.118042, -0.00601196, -0.952148, 0.828613, 74.125, -1.08984, 5.98438, Snipping-Correct
-0.925293, 0.548828, 0.128418, 1.47461, 0.487305, 10.4297, -0.732422, 0.481201, 0.0770264, -0.0427551, -0.931641, 0.802734, 70.875, -1.05273, 10.1719, Snipping-Correct
-0.659668, 0.637695, 0.0761719, 1.29785, 0.375, 6.44141, -0.732422, 0.427246, 0.100037, -0.043335, -0.92627, 0.763184, 69.5, -1.05957, 9.35938, Snipping-Correct
-0.743652, 0.664551, 0.101929, 1.4082, 0.414063, 8.29688, -0.777344, 0.407227, 0.0680542, -0.0413513, -0.9375, 0.855957, 71.4375, -1.08301, 8.98438, Snipping-Correct
-0.717773, 0.687988, 0.0865479, 1.40625, 0.371094, 7.02344, -0.742676, 0.393311, 0.0810547, -0.0391541, -0.946289, 0.784668, 73.3125, -1.1875, 7.39844, Snipping-Correct
-0.583984, 0.556641, 0.0518494, 1.14063, 0.266846, 4.20313, -0.796387, 0.408203, 0.0600586, -0.0271606, -0.944336, 0.855957, 72.75, -1.11914, 8.4375, Snipping-Correct
-1.15039, 0.553711, 0.0894165, 1.7041, 0.383545, 7.36328, -0.840332, 0.398193, 0.125122, -0.0279083, -0.949219, 0.89209, 73.0625, -1.18555, 8.90625, Snipping-Correct
-0.663086, 0.631348, 0.065979, 1.29492, 0.365967, 5.39063, -0.775391, 0.401367, 0.11908, -0.0238647, -0.926758, 0.848145, 70.0625, -1.18555, 9.58594, Snipping-Correct
-1.03711, 0.554688, 0.0869141, 1.5918, 0.425537, 7.08594, -0.757324, 0.41626, 0.114075, -0.0218964, -0.929199, 0.833008, 70.375, -1.16406, 9.5, Snipping-Correct
-0.893555, 0.461426, 0.0767212, 1.35547, 0.534668, 6.40234, -0.830566, 0.376221, 0.270264, -0.0226898, -0.97168, 0.841797, 77, -1.10547, 2.81445, Snipping-Correct
-1.16504, 0.557129, 0.201172, 1.72266, 0.554199, 16.4688, -0.799316, 0.171143, 0.0740356, -0.140137, -0.97998, 0.816895, 78.9375, -1.13574, 0.518555, Snipping-Correct
-0.910645, 0.515137, 0.102783, 1.42578, 0.42627, 8.49219, -0.79834, 0.148071, -0.00500488, -0.189697, -0.969238, 0.826172, 76.125, -1.14453, 0.465088, Snipping-Correct
-0.996582, 0.702148, 0.0871582, 1.69922, 0.437988, 7.23047, -0.744629, 0.133057, -0.0300293, -0.192993, -0.97998, 0.793945, 78.5625, -1.12695, 0.45459, Snipping-Correct
-0.746582, 0.69873, 0.111084, 1.44531, 0.486816, 9.00781, -0.773438, 0.133057, 0.0300293, -0.173584, -0.983887, 0.795898, 78.8125, -1.16992, 0.302979, Snipping-Correct
-0.742676, 0.86377, 0.128174, 1.60645, 0.460205, 10.4531, -0.746582, 0.0960693, -0.0410156, -0.183472, -0.970703, 0.763184, 76.875, -1.20215, 0.140015, Snipping-Correct
-0.967285, 0.893066, 0.155396, 1.86035, 0.479492, 12.9063, -0.686523, 0.121094, -0.0150146, -0.180664, -0.986816, 0.718262, 80.25, -1.21777, 0.175293, Snipping-Correct
-0.693848, 0.63916, 0.0890503, 1.33301, 0.44458, 7.25, -0.710449, 0.0600586, 0.0420532, -0.147217, -0.960938, 0.730469, 76.25, -1.19141, 0.16394, Snipping-Correct
-0.303955, 0.349854, 0.00988007, 0.653809, 0.0969849, 0.845215, -0.887695, -0.0140381, -0.0630493, -0.13147, -0.98291, 0.904785, 78.375, -1.0791, 0.219849, Snipping-Correct
-1.47656, 0.744141, 0.215454, 2.2207, 0.616211, 18.2344, -0.784668, 0.231201, 0.121094, -0.0717163, -0.977539, 0.802734, 78, -1.12402, 1.59082, Snipping-Correct
-0.653809, 1.12598, 0.155518, 1.78027, 0.477783, 12.6797, -0.802734, 0.337158, 0.0960693, -0.0752563, -0.963867, 0.839844, 75.5625, -1.13867, 3.47461, Snipping-Correct
-1.03125, 0.634766, 0.104309, 1.66602, 0.344971, 8.5, -0.84375, 0.266113, 0.13208, -0.0414124, -0.968262, 0.861816, 76.5, -1.1416, 3.07227, Snipping-Correct
-0.969727, 0.766602, 0.167114, 1.73633, 0.402832, 13.6641, -0.816406, 0.317139, 0.192139, -0.040802, -0.966797, 0.829102, 76.375, -1.12891, 3.77734, Snipping-Correct
-0.519043, 0.670898, 0.0946655, 1.19043, 0.361328, 7.90625, -0.808594, 0.27124, 0.137085, -0.0347595, -0.97168, 0.830566, 76.6875, -1.16602, 4.02734, Snipping-Correct
-0.575684, 0.621582, 0.0747681, 1.19727, 0.297119, 6.06641, -0.825684, 0.28125, 0.0940552, -0.0262604, -0.962891, 0.873047, 75.4375, -1.05859, 4.10547, Snipping-Correct
-0.625, 0.418213, 0.0623169, 1.04395, 0.253906, 5.07031, -0.773438, 0.28125, 0.0469971, -0.0368042, -0.961426, 0.785156, 75, -1.09375, 4.06641, Snipping-Correct
-0.620117, 0.4646, 0.0806274, 1.08496, 0.290527, 6.73828, -0.833496, 0.308105, 0.0540161, -0.0717163, -0.967773, 0.864746, 75.8125, -1.09277, 3.86523, Snipping-Correct
-0.502441, 0.4646, 0.0537109, 0.967285, 0.256104, 4.36719, -0.84375, 0.2771, 0.0239868, -0.065979, -0.964355, 0.870117, 75.5, -1.06348, 4.00391, Snipping-Correct
-0.592285, 0.533691, 0.0606384, 1.12598, 0.257568, 4.91406, -0.844727, 0.286133, 0.0620117, -0.0640259, -0.966309, 0.866211, 75.875, -1.11621, 3.29883, Snipping-Correct
-0.659668, 0.631836, 0.0520935, 1.29199, 0.230713, 4.27344, -0.82373, 0.26123, -0.0090332, -0.0754395, -0.970703, 0.855957, 77.25, -1.14355, 2.91406, Snipping-Correct
-0.649902, 0.510742, 0.0775146, 1.16113, 0.290771, 6.34375, -0.84668, 0.263184, 0.0100098, -0.100891, -0.977051, 0.870605, 77.375, -1.11621, 2.85156, Snipping-Correct
-0.643555, 0.559082, 0.0653687, 1.20313, 0.293213, 5.40234, -0.841309, 0.290283, 0.135132, -0.0732422, -0.970703, 0.872559, 76.5625, -1.0918, 3.23047, Snipping-Correct
-0.429199, 0.336426, 0.0246735, 0.765625, 0.171509, 2.00977, -0.871582, 0.256104, -0.00299072, -0.0753174, -0.966797, 0.891602, 75.9375, -1.0459, 3.24023, Snipping-Correct
-0.440186, 0.365723, 0.0214844, 0.806152, 0.160156, 1.74414, -0.834473, 0.253174, -0.000976563, -0.059845, -0.963867, 0.864746, 75.4375, -1.08496, 3.57422, Snipping-Correct
-0.629883, 0.550781, 0.0551758, 1.18066, 0.228271, 4.58203, -0.879395, 0.240112, 0.0289917, -0.0658569, -0.968262, 0.88916, 76.25, -1.09277, 3.14063, Snipping-Correct
-0.631348, 0.558594, 0.0440979, 1.19043, 0.225708, 3.94141, -0.841309, 0.238159, 0.06604, -0.0244904, -0.976074, 0.864746, 77.5625, -1.05859, 2.87891, Snipping-Correct
-0.372314, 0.461426, 0.0435181, 0.833984, 0.223389, 3.5957, -0.885742, 0.241211, 0.135132, 0.0207214, -0.97998, 0.895996, 78.1875, -1.13281, 2.26758, Snipping-Correct
-0.95752, 0.275391, 0.0823975, 1.2334, 0.759277, 12.5391, -0.756348, 0.295166, 0.498291, 0.289063, -0.887695, 0.876953, 64.4375, -1.18359, 8.42969, Snipping-Incorrect
-0.601074, 0.490234, 0.0528564, 1.0918, 0.34375, 4.28906, -0.779297, 0.507324, 0.189087, 0.0184631, -0.89502, 0.890625, 65.3125, -1.00391, 14.5703, Snipping-Incorrect
-0.555664, 0.45166, 0.0591736, 1.00781, 0.375, 4.9375, -0.683594, 0.58252, 0.253174, 0.0497742, -0.857422, 0.824219, 60.0625, -1.02539, 20.0469, Snipping-Incorrect
-0.793457, 0.885254, 0.124939, 1.67871, 0.566895, 10.1328, -0.583496, 0.747559, 0.210205, 0.0325623, -0.785156, 0.858398, 50.7813, -1.03809, 28.4063, Snipping-Incorrect
-1.00098, 1.20898, 0.157104, 2.21094, 0.581055, 12.9141, -0.54248, 0.799316, 0.573242, 0.215942, -0.717285, 0.733887, 42.9375, -1.07813, 33.2188, Snipping-Incorrect
-1.64746, 1.22363, 0.316406, 2.87109, 0.88916, 25.6406, -0.459229, 0.82373, 0.730469, 0.240601, -0.800293, 0.665527, 53.4375, -1.11621, 24.9375, Snipping-Incorrect
-0.624512, 1.76367, 0.188232, 2.38867, 0.823242, 15.2656, -0.54248, 0.783691, 0.645508, 0.345703, -0.850586, 0.687988, 59.6875, -1.05078, 12.4141, Snipping-Incorrect
-0.649902, 0.883301, 0.0999756, 1.5332, 0.47583, 8.25781, -0.751465, 0.513184, 0.546387, 0.319336, -0.871094, 0.79834, 61.5625, -1.10449, 11.5938, Snipping-Incorrect
-0.639648, 0.834961, 0.139648, 1.47461, 0.522949, 11.4766, -0.654297, 0.575195, 0.558594, 0.283447, -0.85498, 0.726563, 59.9375, -1.04297, 14.1484, Snipping-Incorrect
-0.665527, 0.748535, 0.0683594, 1.41406, 0.585449, 5.73828, -0.589355, 0.776367, 0.378174, 0.0540161, -0.753418, 0.847168, 46.5313, -0.946777, 35.125, Snipping-Incorrect
-0.600098, 0.685059, 0.0726929, 1.28516, 0.45752, 5.94141, -0.589355, 0.72168, 0.203125, 0.0545654, -0.75293, 0.874023, 46.4063, -0.897461, 33.1563, Snipping-Incorrect
-0.461426, 0.78418, 0.100159, 1.24609, 0.574219, 8.17969, -0.629395, 0.70752, 0.42334, 0.10614, -0.856445, 0.836426, 59.9688, -1.10156, 20.8438, Snipping-Incorrect
-0.553223, 1.11914, 0.161011, 1.67285, 0.598633, 13.1797, -0.76123, 0.330322, 0.459229, 0.22937, -0.948242, 0.775879, 74, -1.23633, 3.70508, Snipping-Incorrect
-0.82959, 1.38379, 0.309326, 2.21484, 0.689453, 25.0938, -0.527344, 0.620605, 0.427246, 0.232056, -0.844238, 0.69873, 58.8438, -1.08887, 17.5, Snipping-Incorrect
-0.750977, 1.06836, 0.196655, 1.81934, 0.610352, 15.9453, -0.583496, 0.567383, 0.437256, 0.210693, -0.84668, 0.736816, 59.6875, -1.19531, 19.125, Snipping-Incorrect
-0.806152, 1.41113, 0.231079, 2.21875, 0.736328, 18.8125, -0.678223, 0.555176, 0.473389, 0.147095, -0.902344, 0.755371, 67.4375, -1.22754, 14.1563, Snipping-Incorrect
-0.875488, 1.03613, 0.187256, 1.91211, 0.723633, 15.2109, -0.597168, 0.771484, 0.328125, 0.112671, -0.779785, 0.822754, 50, -1.04492, 30.0625, Snipping-Incorrect
-1.09668, 1.18457, 0.220093, 2.28125, 0.697266, 17.9063, -0.467285, 0.746582, 0.437256, 0.200073, -0.757813, 0.688965, 47.8438, -1.16211, 29.875, Snipping-Incorrect
-0.750977, 1.43457, 0.14917, 2.18555, 0.574707, 12.2422, -0.570313, 0.723633, 0.420166, 0.206055, -0.777832, 0.797852, 49.3438, -0.925781, 28.6719, Snipping-Incorrect
-0.818359, 0.681641, 0.109375, 1.5, 0.585449, 8.86719, -0.51416, 0.776367, 0.381348, 0.169312, -0.724121, 0.822266, 43.0938, -0.92334, 33.7813, Snipping-Incorrect
-0.578613, 0.617676, 0.0899658, 1.19629, 0.556641, 7.32422, -0.597168, 0.67627, 0.492432, 0.259766, -0.838867, 0.754395, 57.375, -1.02148, 20.1094, Snipping-Incorrect
-0.653809, 0.812988, 0.124023, 1.4668, 0.556641, 10.0625, -0.51416, 0.715332, 0.496338, 0.287354, -0.723145, 0.766602, 43.125, -0.955566, 31.8906, Snipping-Incorrect
-0.815918, 0.785645, 0.158203, 1.60156, 0.766602, 12.9609, -0.469238, 0.760254, 0.518555, 0.269287, -0.74707, 0.696289, 46.5, -1.13086, 29.0313, Snipping-Incorrect
-1.28516, 0.735352, 0.165039, 2.02148, 0.745117, 13.5469, -0.596191, 0.691406, 0.480225, 0.223633, -0.885742, 0.711914, 65.5, -1.24609, 14.4766, Snipping-Incorrect
-0.637207, 1.08301, 0.143799, 1.7207, 0.69873, 11.8906, -0.589355, 0.603516, 0.571289, 0.217285, -0.858398, 0.689453, 61.5, -1.23145, 16.6094, Snipping-Incorrect
-0.383301, 0.439453, 0.0284729, 0.822754, 0.297607, 2.3125, -0.70459, 0.588379, 0.353271, 0.246216, -0.83252, 0.871094, 56.5313, -0.943359, 19.8906, Snipping-Incorrect
-0.646484, 0.361328, 0.0604858, 1.00781, 0.435303, 4.94531, -0.664551, 0.662598, 0.330322, 0.168823, -0.817871, 0.810547, 54.5625, -1.00781, 23.4688, Snipping-Incorrect
-0.387695, 0.488281, 0.0403137, 0.875977, 0.321045, 3.29297, -0.739258, 0.574219, 0.335205, 0.14856, -0.838867, 0.864746, 57.2813, -0.991699, 20.9688, Snipping-Incorrect
-0.53125, 0.48291, 0.054657, 1.01465, 0.418945, 4.45313, -0.605469, 0.620605, 0.363281, 0.148193, -0.82959, 0.756836, 56.2188, -1.04785, 22.2344, Snipping-Incorrect
-0.73877, 1.14551, 0.0973511, 1.88477, 0.431885, 8.05469, -0.627441, 0.553223, 0.371338, 0.158203, -0.866699, 0.782227, 61.5313, -1.03711, 18.2344, Snipping-Incorrect
-0.612793, 0.499268, 0.0645752, 1.1123, 0.41748, 5.29688, -0.698242, 0.524414, 0.355225, 0.202759, -0.885742, 0.816895, 63.9375, -1.08691, 14.0859, Snipping-Incorrect
-0.404785, 0.520508, 0.0387268, 0.925293, 0.391113, 3.1582, -0.837402, 0.300293, 0.374268, 0.250488, -0.937012, 0.849121, 71.3125, -1.08691, 2.84766, Snipping-Incorrect
-0.571777, 0.416992, 0.0509949, 0.98877, 0.367432, 4.31641, -0.746582, 0.348145, 0.411377, 0.272217, -0.92041, 0.797852, 69.5625, -1.14453, 5.92188, Snipping-Incorrect
-0.429199, 0.513184, 0.0568237, 0.942383, 0.418213, 4.60547, -0.780273, 0.341309, 0.381348, 0.223389, -0.929688, 0.872559, 70.375, -1.10352, 5.53516, Snipping-Incorrect
-0.785645, 0.683594, 0.114929, 1.46973, 0.497314, 10.0469, -0.745605, 0.393311, 0.391357, 0.168213, -0.929199, 0.788086, 70.375, -1.05273, 6.87109, Snipping-Incorrect
-0.610352, 0.755859, 0.0527649, 1.36621, 0.319092, 4.27734, -0.820313, 0.395264, 0.174072, 0.0367737, -0.931641, 0.879395, 70.25, -1.04785, 9.53125, Snipping-Incorrect
-0.757324, 0.554199, 0.0474548, 1.31152, 0.439209, 4.12891, -0.800293, 0.365234, 0.39624, 0.128418, -0.95166, 0.835449, 74, -1.11328, 4.76563, Snipping-Incorrect
-0.73291, 1.37012, 0.198486, 2.10352, 0.711426, 16.1094, -0.694336, 0.355225, 0.484375, 0.16626, -0.962891, 0.71875, 76.4375, -1.33496, 2.62109, Snipping-Incorrect
-0.912598, 1.63965, 0.321777, 2.55273, 0.828125, 26.1719, -0.647461, 0.453369, 0.647461, 0.209106, -0.937012, 0.669922, 72.5, -1.21387, 6.49219, Snipping-Incorrect
-1.63086, 0.927246, 0.328857, 2.55859, 0.790527, 29.4688, -0.683594, 0.375244, 0.63916, 0.232666, -0.933105, 0.759277, 71.0625, -1.17578, 1.93262, Snipping-Incorrect
-0.457275, 0.854004, 0.0999756, 1.31152, 0.474854, 8.57031, -0.821289, 0.275146, 0.0820313, -0.0859985, -0.962891, 0.835938, 75.375, -1.18652, 2.49414, Snipping-Incorrect
-0.689941, 1.05078, 0.105347, 1.74121, 0.449463, 8.55469, -0.837402, 0.249146, 0.168091, -0.00149727, -0.981445, 0.849609, 78.5, -1.12988, 2.875, Snipping-Incorrect
-0.563477, 0.643555, 0.0841064, 1.20703, 0.379639, 6.82813, -0.862305, 0.246216, 0.168091, 0.00471497, -0.977539, 0.876465, 77.75, -1.13867, 2.9043, Snipping-Incorrect
-0.626465, 0.472412, 0.0919189, 1.09961, 0.412109, 7.47656, -0.821289, 0.362305, 0.255127, 0.0229492, -0.963867, 0.833984, 75.4375, -1.18164, 3.4043, Snipping-Incorrect
-0.75, 0.759766, 0.11615, 1.50977, 0.462646, 9.4375, -0.835449, 0.279297, 0.206177, 0.0420837, -0.97168, 0.848633, 76.9375, -1.11035, 3.06836, Snipping-Incorrect
-0.663086, 0.916992, 0.123718, 1.58008, 0.619629, 10.1719, -0.710449, 0.498291, 0.394287, 0.139038, -0.92627, 0.751465, 69.9375, -1.09961, 9.20313, Snipping-Incorrect
-0.827637, 1.08789, 0.160278, 1.91602, 0.574219, 13.0391, -0.777344, 0.460205, 0.335205, 0.0797729, -0.956055, 0.803711, 74.5625, -1.11914, 6.28516, Snipping-Incorrect
-0.618164, 0.777832, 0.0970459, 1.39648, 0.483154, 7.89453, -0.811523, 0.312256, 0.344238, 0.133911, -0.960938, 0.831543, 75.0625, -1.0918, 4.51563, Snipping-Incorrect
-0.730469, 0.735352, 0.141357, 1.46582, 0.509766, 11.6328, -0.811523, 0.314209, 0.314209, 0.0838623, -0.959961, 0.834961, 75.5, -1.10645, 4.85156, Snipping-Incorrect
-0.736816, 0.963867, 0.158447, 1.70117, 0.500488, 12.9453, -0.837402, 0.309326, 0.340332, 0.115295, -0.955566, 0.864746, 74.75, -1.11914, 4.375, Snipping-Incorrect
-0.694824, 0.673828, 0.119507, 1.36914, 0.464111, 9.82813, -0.791504, 0.344238, 0.42627, 0.134033, -0.949219, 0.80957, 73.5625, -1.09961, 4.19141, Snipping-Incorrect
-0.794922, 1.18457, 0.154785, 1.97949, 0.526855, 12.6094, -0.811523, 0.315186, 0.370361, 0.153809, -0.949219, 0.833984, 73.1875, -1.12988, 4.55859, Snipping-Incorrect
-0.746094, 0.773438, 0.12323, 1.51953, 0.504883, 10.0078, -0.796387, 0.408203, 0.484375, 0.183838, -0.935059, 0.814453, 71.75, -1.13281, 5.01953, Snipping-Incorrect
-1.03418, 0.865723, 0.136108, 1.90039, 0.469238, 11.0859, -0.810547, 0.312256, 0.464355, 0.20813, -0.941406, 0.84668, 72.0625, -1.09961, 4.54688, Snipping-Incorrect
-1.15527, 0.85498, 0.160034, 2.01172, 0.521973, 13.0547, -0.820313, 0.346191, 0.489258, 0.224365, -0.95166, 0.86377, 73.875, -1.16895, 5.02734, Snipping-Incorrect
-0.950195, 0.595703, 0.130493, 1.5459, 0.461182, 10.6641, -0.820313, 0.362305, 0.315186, 0.11554, -0.946289, 0.84082, 72.5, -1.09961, 6.39453, Snipping-Incorrect
-0.477295, 0.536133, 0.055481, 1.01367, 0.362061, 4.49609, -0.802734, 0.392334, 0.2771, 0.0547791, -0.946289, 0.822754, 72.875, -1.12012, 5.89063, Snipping-Incorrect
-0.675781, 0.554688, 0.0743408, 1.23047, 0.358643, 6.21094, -0.776367, 0.279297, 0.151123, 0.0290833, -0.964355, 0.789063, 75.875, -1.08203, 3.50391, Snipping-Incorrect
-0.727051, 0.406006, 0.0726929, 1.13379, 0.383789, 6.125, -0.827637, 0.282227, 0.165161, 0.0165558, -0.965332, 0.836914, 76.375, -1.14355, 3.17383, Snipping-Incorrect
-0.942871, 0.661621, 0.0876465, 1.60449, 0.37793, 7.19141, -0.854492, 0.27417, 0.2052, 0.039917, -0.973145, 0.868164, 77, -1.10547, 3.07813, Snipping-Incorrect
-0.646973, 0.416992, 0.0703125, 1.06445, 0.373291, 5.82813, -0.835449, 0.270264, 0.268066, 0.0795898, -0.97168, 0.844727, 76.75, -1.2041, 2.7832, Snipping-Incorrect
-0.590332, 0.620117, 0.0704956, 1.21094, 0.491455, 5.84375, -0.803711, 0.270264, 0.316162, 0.108826, -0.966309, 0.82373, 76.0625, -1.09277, 2.67969, Snipping-Incorrect
-0.594727, 0.819824, 0.0929565, 1.41504, 0.578613, 7.625, -0.784668, 0.303223, 0.443359, 0.151611, -0.95459, 0.803223, 74.5625, -1.19434, 3.27344, Snipping-Incorrect
-0.589844, 0.0775146, 0.0297394, 0.66748, 0.385254, 4.15234, -0.813477, 0.265137, 0.315186, 0.103699, -0.961426, 0.844238, 75.125, -1.0293, 3.29297, Snipping-Incorrect
-0.169067, 0.116577, 0.00180149, 0.285645, 0.0447998, 0.147217, -0.947754, 0.233154, 0.0370483, 0.0190887, -0.970703, 0.97168, 76.0625, -1.00293, 3.84375, Snipping-Incorrect
